p cnf 1148
-20 -356
-21 -359
-22 -362
-23 -365
-24 -368
-25 -371
-26 -374
-27 -377
-28 -380
-29 -383
-30 -386
-31 -389
-32 -392
-33 -395
-34 -398
-35 -401
-36 -404
-37 -407
-38 -410
-39 411
-40 412
-41 413
-42 414
-43 415
-44 416
-45 -21
-45 -22
21 22 45
-46 -23
-46 -24
23 24 46
-47 -25
-47 -26
25 26 47
-48 -27
-48 -28
27 28 48
-49 -29
-49 -30
29 30 49
-50 -31
-50 -32
31 32 50
-51 -33
-51 -34
33 34 51
-52 -35
-52 -36
35 36 52
-53 -37
-53 -38
37 38 53
-54 -39
-54 -40
39 40 54
-55 -41
-55 -42
41 42 55
-56 -43
-56 -44
43 44 56
-57 45
-57 46
-45 -46 57
-58 47
-58 48
-47 -48 58
-59 49
-59 50
-49 -50 59
-60 51
-60 52
-51 -52 60
-61 53
-61 54
-53 -54 61
-62 55
-62 56
-55 -56 62
-63 57
-63 58
-57 -58 63
-64 59
-64 60
-59 -60 64
-65 61
-65 62
-61 -62 65
-66 63
-66 64
-63 -64 66
-67 65
-67 66
-65 -66 67
-68 -20
-68 21
20 -21 68
-69 20
-69 -21
-20 21 69
-70 -68
-70 -69
68 69 70
-71 20
-71 21
-20 -21 71
-72 -20
-72 -70
20 70 72
-73 20
-73 70
-20 -70 73
-74 -72
-74 -73
72 73 74
-75 20
-75 -70
-20 70 75
-76 -71
-76 -75
71 75 76
-77 -21
-77 22
21 -22 77
-78 21
-78 -22
-21 22 78
-79 -77
-79 -78
77 78 79
-80 21
-80 22
-21 -22 80
-81 76
-81 -79
-76 79 81
-82 -76
-82 79
76 -79 82
-83 -81
-83 -82
81 82 83
-84 -76
-84 -79
76 79 84
-85 -80
-85 -84
80 84 85
-86 -22
-86 23
22 -23 86
-87 22
-87 -23
-22 23 87
-88 -86
-88 -87
86 87 88
-89 22
-89 23
-22 -23 89
-90 85
-90 -88
-85 88 90
-91 -85
-91 88
85 -88 91
-92 -90
-92 -91
90 91 92
-93 -85
-93 -88
85 88 93
-94 -89
-94 -93
89 93 94
-95 -23
-95 24
23 -24 95
-96 23
-96 -24
-23 24 96
-97 -95
-97 -96
95 96 97
-98 23
-98 24
-23 -24 98
-99 94
-99 -97
-94 97 99
-100 -94
-100 97
94 -97 100
-101 -99
-101 -100
99 100 101
-102 -94
-102 -97
94 97 102
-103 -98
-103 -102
98 102 103
-104 -24
-104 25
24 -25 104
-105 24
-105 -25
-24 25 105
-106 -104
-106 -105
104 105 106
-107 24
-107 25
-24 -25 107
-108 103
-108 -106
-103 106 108
-109 -103
-109 106
103 -106 109
-110 -108
-110 -109
108 109 110
-111 -103
-111 -106
103 106 111
-112 -107
-112 -111
107 111 112
-113 -25
-113 26
25 -26 113
-114 25
-114 -26
-25 26 114
-115 -113
-115 -114
113 114 115
-116 25
-116 26
-25 -26 116
-117 112
-117 -115
-112 115 117
-118 -112
-118 115
112 -115 118
-119 -117
-119 -118
117 118 119
-120 -112
-120 -115
112 115 120
-121 -116
-121 -120
116 120 121
-122 -26
-122 27
26 -27 122
-123 26
-123 -27
-26 27 123
-124 -122
-124 -123
122 123 124
-125 26
-125 27
-26 -27 125
-126 121
-126 -124
-121 124 126
-127 -121
-127 124
121 -124 127
-128 -126
-128 -127
126 127 128
-129 -121
-129 -124
121 124 129
-130 -125
-130 -129
125 129 130
-131 -27
-131 28
27 -28 131
-132 27
-132 -28
-27 28 132
-133 -131
-133 -132
131 132 133
-134 27
-134 28
-27 -28 134
-135 130
-135 -133
-130 133 135
-136 -130
-136 133
130 -133 136
-137 -135
-137 -136
135 136 137
-138 -130
-138 -133
130 133 138
-139 -134
-139 -138
134 138 139
-140 -28
-140 29
28 -29 140
-141 28
-141 -29
-28 29 141
-142 -140
-142 -141
140 141 142
-143 28
-143 29
-28 -29 143
-144 139
-144 -142
-139 142 144
-145 -139
-145 142
139 -142 145
-146 -144
-146 -145
144 145 146
-147 -139
-147 -142
139 142 147
-148 -143
-148 -147
143 147 148
-149 -29
-149 30
29 -30 149
-150 29
-150 -30
-29 30 150
-151 -149
-151 -150
149 150 151
-152 29
-152 30
-29 -30 152
-153 148
-153 -151
-148 151 153
-154 -148
-154 151
148 -151 154
-155 -153
-155 -154
153 154 155
-156 -148
-156 -151
148 151 156
-157 -152
-157 -156
152 156 157
-158 -30
-158 31
30 -31 158
-159 30
-159 -31
-30 31 159
-160 -158
-160 -159
158 159 160
-161 30
-161 31
-30 -31 161
-162 157
-162 -160
-157 160 162
-163 -157
-163 160
157 -160 163
-164 -162
-164 -163
162 163 164
-165 -157
-165 -160
157 160 165
-166 -161
-166 -165
161 165 166
-167 -31
-167 32
31 -32 167
-168 31
-168 -32
-31 32 168
-169 -167
-169 -168
167 168 169
-170 31
-170 32
-31 -32 170
-171 166
-171 -169
-166 169 171
-172 -166
-172 169
166 -169 172
-173 -171
-173 -172
171 172 173
-174 -166
-174 -169
166 169 174
-175 -170
-175 -174
170 174 175
-176 -32
-176 33
32 -33 176
-177 32
-177 -33
-32 33 177
-178 -176
-178 -177
176 177 178
-179 32
-179 33
-32 -33 179
-180 175
-180 -178
-175 178 180
-181 -175
-181 178
175 -178 181
-182 -180
-182 -181
180 181 182
-183 -175
-183 -178
175 178 183
-184 -179
-184 -183
179 183 184
-185 -33
-185 34
33 -34 185
-186 33
-186 -34
-33 34 186
-187 -185
-187 -186
185 186 187
-188 33
-188 34
-33 -34 188
-189 184
-189 -187
-184 187 189
-190 -184
-190 187
184 -187 190
-191 -189
-191 -190
189 190 191
-192 -184
-192 -187
184 187 192
-193 -188
-193 -192
188 192 193
-194 -34
-194 35
34 -35 194
-195 34
-195 -35
-34 35 195
-196 -194
-196 -195
194 195 196
-197 34
-197 35
-34 -35 197
-198 193
-198 -196
-193 196 198
-199 -193
-199 196
193 -196 199
-200 -198
-200 -199
198 199 200
-201 -193
-201 -196
193 196 201
-202 -197
-202 -201
197 201 202
-203 -35
-203 36
35 -36 203
-204 35
-204 -36
-35 36 204
-205 -203
-205 -204
203 204 205
-206 35
-206 36
-35 -36 206
-207 202
-207 -205
-202 205 207
-208 -202
-208 205
202 -205 208
-209 -207
-209 -208
207 208 209
-210 -202
-210 -205
202 205 210
-211 -206
-211 -210
206 210 211
-212 -36
-212 37
36 -37 212
-213 36
-213 -37
-36 37 213
-214 -212
-214 -213
212 213 214
-215 36
-215 37
-36 -37 215
-216 211
-216 -214
-211 214 216
-217 -211
-217 214
211 -214 217
-218 -216
-218 -217
216 217 218
-219 -211
-219 -214
211 214 219
-220 -215
-220 -219
215 219 220
-221 -37
-221 38
37 -38 221
-222 37
-222 -38
-37 38 222
-223 -221
-223 -222
221 222 223
-224 37
-224 38
-37 -38 224
-225 220
-225 -223
-220 223 225
-226 -220
-226 223
220 -223 226
-227 -225
-227 -226
225 226 227
-228 -220
-228 -223
220 223 228
-229 -224
-229 -228
224 228 229
-230 -38
-230 39
38 -39 230
-231 38
-231 -39
-38 39 231
-232 -230
-232 -231
230 231 232
-233 38
-233 39
-38 -39 233
-234 229
-234 -232
-229 232 234
-235 -229
-235 232
229 -232 235
-236 -234
-236 -235
234 235 236
-237 -229
-237 -232
229 232 237
-238 -233
-238 -237
233 237 238
-239 -39
-239 40
39 -40 239
-240 39
-240 -40
-39 40 240
-241 -239
-241 -240
239 240 241
-242 39
-242 40
-39 -40 242
-243 238
-243 -241
-238 241 243
-244 -238
-244 241
238 -241 244
-245 -243
-245 -244
243 244 245
-246 -238
-246 -241
238 241 246
-247 -242
-247 -246
242 246 247
-248 -40
-248 41
40 -41 248
-249 40
-249 -41
-40 41 249
-250 -248
-250 -249
248 249 250
-251 40
-251 41
-40 -41 251
-252 247
-252 -250
-247 250 252
-253 -247
-253 250
247 -250 253
-254 -252
-254 -253
252 253 254
-255 -247
-255 -250
247 250 255
-256 -251
-256 -255
251 255 256
-257 -41
-257 42
41 -42 257
-258 41
-258 -42
-41 42 258
-259 -257
-259 -258
257 258 259
-260 41
-260 42
-41 -42 260
-261 256
-261 -259
-256 259 261
-262 -256
-262 259
256 -259 262
-263 -261
-263 -262
261 262 263
-264 -256
-264 -259
256 259 264
-265 -260
-265 -264
260 264 265
-266 -42
-266 43
42 -43 266
-267 42
-267 -43
-42 43 267
-268 -266
-268 -267
266 267 268
-269 42
-269 43
-42 -43 269
-270 265
-270 -268
-265 268 270
-271 -265
-271 268
265 -268 271
-272 -270
-272 -271
270 271 272
-273 -265
-273 -268
265 268 273
-274 -269
-274 -273
269 273 274
-275 -43
-275 44
43 -44 275
-276 43
-276 -44
-43 44 276
-277 -275
-277 -276
275 276 277
-278 43
-278 44
-43 -44 278
-279 274
-279 -277
-274 277 279
-280 -274
-280 277
274 -277 280
-281 -279
-281 -280
279 280 281
-282 -274
-282 -277
274 277 282
-283 -278
-283 -282
278 282 283
-284 20
-284 -74
-20 74 284
-285 -20
-285 22
20 -22 285
-286 -284
-286 -285
284 285 286
-287 20
-287 -83
-20 83 287
-288 -20
-288 23
20 -23 288
-289 -287
-289 -288
287 288 289
-290 20
-290 -92
-20 92 290
-291 -20
-291 24
20 -24 291
-292 -290
-292 -291
290 291 292
-293 20
-293 -101
-20 101 293
-294 -20
-294 25
20 -25 294
-295 -293
-295 -294
293 294 295
-296 20
-296 -110
-20 110 296
-297 -20
-297 26
20 -26 297
-298 -296
-298 -297
296 297 298
-299 20
-299 -119
-20 119 299
-300 -20
-300 27
20 -27 300
-301 -299
-301 -300
299 300 301
-302 20
-302 -128
-20 128 302
-303 -20
-303 28
20 -28 303
-304 -302
-304 -303
302 303 304
-305 20
-305 -137
-20 137 305
-306 -20
-306 29
20 -29 306
-307 -305
-307 -306
305 306 307
-308 20
-308 -146
-20 146 308
-309 -20
-309 30
20 -30 309
-310 -308
-310 -309
308 309 310
-311 20
-311 -155
-20 155 311
-312 -20
-312 31
20 -31 312
-313 -311
-313 -312
311 312 313
-314 20
-314 -164
-20 164 314
-315 -20
-315 32
20 -32 315
-316 -314
-316 -315
314 315 316
-317 20
-317 -173
-20 173 317
-318 -20
-318 33
20 -33 318
-319 -317
-319 -318
317 318 319
-320 20
-320 -182
-20 182 320
-321 -20
-321 34
20 -34 321
-322 -320
-322 -321
320 321 322
-323 20
-323 -191
-20 191 323
-324 -20
-324 35
20 -35 324
-325 -323
-325 -324
323 324 325
-326 20
-326 -200
-20 200 326
-327 -20
-327 36
20 -36 327
-328 -326
-328 -327
326 327 328
-329 20
-329 -209
-20 209 329
-330 -20
-330 37
20 -37 330
-331 -329
-331 -330
329 330 331
-332 20
-332 -218
-20 218 332
-333 -20
-333 38
20 -38 333
-334 -332
-334 -333
332 333 334
-335 20
-335 -227
-20 227 335
-336 -20
-336 39
20 -39 336
-337 -335
-337 -336
335 336 337
-338 20
-338 -236
-20 236 338
-339 -20
-339 40
20 -40 339
-340 -338
-340 -339
338 339 340
-341 20
-341 -245
-20 245 341
-342 -20
-342 41
20 -41 342
-343 -341
-343 -342
341 342 343
-344 20
-344 -254
-20 254 344
-345 -20
-345 42
20 -42 345
-346 -344
-346 -345
344 345 346
-347 20
-347 -263
-20 263 347
-348 -20
-348 43
20 -43 348
-349 -347
-349 -348
347 348 349
-350 20
-350 -272
-20 272 350
-351 -20
-351 44
20 -44 351
-352 -350
-352 -351
350 351 352
-353 20
-353 -281
-20 281 353
-354 1
-354 67
-1 -67 354
-355 -67
-355 68
67 -68 355
-356 -354
-356 -355
354 355 356
-357 2
-357 67
-2 -67 357
-358 -67
-358 -286
67 286 358
-359 -357
-359 -358
357 358 359
-360 3
-360 67
-3 -67 360
-361 -67
-361 -289
67 289 361
-362 -360
-362 -361
360 361 362
-363 4
-363 67
-4 -67 363
-364 -67
-364 -292
67 292 364
-365 -363
-365 -364
363 364 365
-366 5
-366 67
-5 -67 366
-367 -67
-367 -295
67 295 367
-368 -366
-368 -367
366 367 368
-369 6
-369 67
-6 -67 369
-370 -67
-370 -298
67 298 370
-371 -369
-371 -370
369 370 371
-372 7
-372 67
-7 -67 372
-373 -67
-373 -301
67 301 373
-374 -372
-374 -373
372 373 374
-375 8
-375 67
-8 -67 375
-376 -67
-376 -304
67 304 376
-377 -375
-377 -376
375 376 377
-378 9
-378 67
-9 -67 378
-379 -67
-379 -307
67 307 379
-380 -378
-380 -379
378 379 380
-381 10
-381 67
-10 -67 381
-382 -67
-382 -310
67 310 382
-383 -381
-383 -382
381 382 383
-384 11
-384 67
-11 -67 384
-385 -67
-385 -313
67 313 385
-386 -384
-386 -385
384 385 386
-387 12
-387 67
-12 -67 387
-388 -67
-388 -316
67 316 388
-389 -387
-389 -388
387 388 389
-390 13
-390 67
-13 -67 390
-391 -67
-391 -319
67 319 391
-392 -390
-392 -391
390 391 392
-393 14
-393 67
-14 -67 393
-394 -67
-394 -322
67 322 394
-395 -393
-395 -394
393 394 395
-396 15
-396 67
-15 -67 396
-397 -67
-397 -325
67 325 397
-398 -396
-398 -397
396 397 398
-399 16
-399 67
-16 -67 399
-400 -67
-400 -328
67 328 400
-401 -399
-401 -400
399 400 401
-402 17
-402 67
-17 -67 402
-403 -67
-403 -331
67 331 403
-404 -402
-404 -403
402 403 404
-405 18
-405 67
-18 -67 405
-406 -67
-406 -334
67 334 406
-407 -405
-407 -406
405 406 407
-408 19
-408 67
-19 -67 408
-409 -67
-409 -337
67 337 409
-410 -408
-410 -409
408 409 410
-411 -67
-411 -340
67 340 411
-412 -67
-412 -343
67 343 412
-413 -67
-413 -346
67 346 413
-414 -67
-414 -349
67 349 414
-415 -67
-415 -352
67 352 415
-416 -67
-416 353
67 -353 416
-417 -44
-417 283
44 -283 417
-418 20
-418 -417
-20 417 418
418
